182 28 100 98 195 16 179 63 23 29 69 186 25 138 134 74 52 129 194 158 41 178 107 79 17 70 11 76 2 19 193 39 146 148 
84 162 54 40 133 7 196 180 5 130 150 119 160 168 109 112 32 176 22 55 87 58 174 95 145 126 80 135 73 8 66 82 154 1 60 34 185 141 120 97 30 64 67 36 175 75 
142 152 169 15 156 37 177 165 188 9 59 151 89 139 45 85 114 117 53 108 56 189 86 166 21 106 198 91 110 121 71 137 81 13 96 115 93 157 83 
4 92 155 88 163 14 153 78 24 131 68 183 190 167 184 102 124 43 187 132 47 72 161 136 172 46 10 122 77 144 113 50 192 123 33 116 
200 48 49 149 197 42 35 181 103 3 18 170 164 104 20 26 159 191 125 101 90 
140 128 6 12 143 127 199 118 105 38 94 99 173 65 111 44 
31 147 57 62 171 27 61 51 

